7

0   19   1   4   18   8   5
19   0   6   2   25   2   13
1   6   0   11   8   1   23
4   2   11   0   16   5  1
18   25   8   16   0   10   1
8   2   1   5   10   0   4
5   13   23   1   1   4   0

0   34   48   50   64   54   48
34   0   50   22   30   20   50
48   50   0   28   34   58   16
50   22   28   0   14   30   36
64   30   34   14   0   28   50
54   20   58   30   28   0   58
48   50   16   36   50  58   0